(set-info :smt-lib-version 2.6)
(set-logic QF_SLIA)
(set-info :source |
Generated by: Joel Day, Thorsten Ehlers, Mitja Kulczynski, Federico Mora, Florin Manea, Dirk Nowotka, Danny Poulsen, Zhengyang Lu
Application: Test WOORPJE
Target solver: WOORPJE
Publications: Day, J. D., Ehlers, T., Kulczynski, M., Manea, F., Nowotka, D., & Poulsen, D. B. (2019). On solving word equations using SAT. In RP 2019
Description: Enriches a system of 30 word equations by suitable linear constraints
|)
(set-info :license "https://creativecommons.org/licenses/by/4.0/")
(set-info :category "random")
(set-info :status unknown)

(declare-fun I () String)
(declare-fun E () String)
(assert (= (str.++  "ae" E "bbbccbaefabdb" I "babececadaef")  (str.++  "ae" E "bbbccbaefabdb" I "babececadaef") ))
(assert (= (str.++  "dbafaafebdafbaffadabcfbcbdbebcffafaffabb" "")  (str.++  "dbafaafebdafbaffadabcfbcbd" E "ffafaffabb") ))
(assert (= (str.++  "cdbadcaefbfafdbafbcecfdaccbeb" E "ceddfad")  (str.++  "cdbadcaefbfafdbafbcecfdaccbeb" E "ceddfad") ))
(assert (>=(* (str.len E) 4) 8))
(assert (<=(* (str.len I) 15) 135))
(check-sat)

(exit)
